2348, 0, 0, 31, 3
2349, 0, 1, 40, 2
2350, 0, 2, 66, 1
2351, 0, 3, 38, 0
2352, 1, 0, 89, 0
2353, 1, 1, 57, 1
2354, 1, 2, 91, 3
2355, 1, 3, 90, 2
2356, 2, 0, 49, 0
2357, 2, 1, 49, 2
2358, 2, 2, 60, 1
2359, 2, 3, 91, 3
2360, 3, 0, 41, 0
2361, 3, 1, 54, 2
2362, 3, 2, 33, 1
2363, 3, 3, 73, 3
